100 100
53 93 1
22 84 1
80 25 1
22 30 1
66 59 1
82 10 1
89 98 1
86 18 1
40 92 1
88 53 1
78 33 1
50 18 1
83 30 1
75 10 1
72 29 1
81 80 1
81 32 1
67 28 1
74 37 1
25 4 1
32 97 1
66 7 1
85 7 1
86 39 1
67 21 1
74 48 1
53 88 1
97 86 1
89 9 1
35 1 1
95 32 1
83 44 1
85 8 1
68 65 1
42 91 1
76 15 1
33 18 1
15 42 1
3 3 1
66 96 1
1 94 1
81 29 1
83 31 1
86 40 1
86 24 1
41 29 1
73 21 1
69 45 1
20 20 1
72 89 1
70 22 1
42 74 1
80 27 1
15 12 1
76 35 1
94 40 1
90 46 1
79 47 1
89 10 1
66 31 1
11 27 1
90 43 1
76 47 1
81 33 1
99 19 1
74 50 1
71 45 1
69 46 1
98 23 1
66 20 1
13 68 1
66 21 1
8 92 1
52 50 1
86 26 1
70 8 1
86 16 1
76 43 1
71 9 1
83 7 1
75 5 1
39 99 1
47 4 1
69 17 1
71 6 1
25 14 1
99 10 1
99 39 1
76 18 1
81 41 1
73 28 1
66 22 1
90 42 1
88 31 1
86 57 1
76 17 1
76 27 1
67 32 1
81 50 1
93 74 1
100 100 
100 100 
100 100 
100 100 
100 100 
100 100 
100 100 
100 100 
100 100 
100 100 
100 100 
100 100 
100 100 
100 100 
100 100 
100 100 
100 100 
100 100 
100 100 
100 100 
100 100 
100 100 
100 100 
100 100 
100 100 
100 100 
100 100 
100 100 
100 100 
100 100 
100 100 
100 100 
100 100 
100 100 
100 100 
100 100 
100 100 
100 100 
100 100 
100 100 
100 100 
100 100 
100 100 
100 100 
100 100 
100 100 
100 100 
100 100 
100 100 
100 100 
100 100 
100 100 
100 100 
100 100 
100 100 
100 100 
100 100 
100 100 
100 100 
100 100 
100 100 
100 100 
100 100 
100 100 
100 100 
100 100 
100 100 
100 100 
100 100 
100 100 
100 100 
100 100 
100 100 
100 100 
100 100 
100 100 
100 100 
100 100 
100 100 
100 100 
100 100 
100 100 
100 100 
100 100 
100 100 
100 100 
100 100 
100 100 
100 100 
100 100 
100 100 
100 100 
100 100 
100 100 
100 100 
100 100 
100 100 
100 100 
100 100 
100 100 
